p tw 363 414
1 2
2 113
3 14
4 5
4 233
5 6
6 7
6 233
7 8
8 9
8 65
9 10
10 11
10 68
11 12
12 13
12 62
13 15
14 25
15 16
15 95
16 17
17 18
17 98
18 19
19 20
19 206
20 21
21 22
21 109
22 23
23 24
23 107
24 250
25 36
26 27
27 28
28 250
29 30
30 31
31 295
32 33
33 34
34 35
35 295
36 47
37 38
38 39
39 295
40 41
41 42
42 43
43 44
44 45
45 46
46 48
46 50
47 58
48 49
49 295
50 51
51 52
52 53
53 54
53 295
54 55
55 56
56 57
57 295
58 69
59 60
60 61
61 295
62 63
63 64
64 295
65 66
66 67
67 295
68 70
69 80
70 71
70 77
71 72
72 73
73 74
74 75
75 76
76 85
77 78
78 79
79 81
80 91
81 82
82 83
83 84
84 85
85 86
86 87
87 88
88 89
89 90
90 217
91 102
92 93
93 94
94 109
95 96
96 97
97 109
98 99
99 100
100 101
101 103
102 114
103 104
104 105
105 106
106 109
107 108
108 109
109 110
110 111
110 119
111 112
112 115
113 224
114 125
114 274
115 116
116 117
117 118
118 127
119 120
120 121
121 122
122 123
123 124
124 126
125 136
126 127
127 128
128 129
129 130
130 131
130 133
131 132
132 135
133 134
134 135
135 137
136 147
136 250
137 138
138 139
139 140
140 141
141 142
142 143
142 217
143 144
144 145
144 148
145 146
146 164
147 158
147 180
148 149
149 150
150 151
150 154
151 152
151 164
152 153
153 164
154 155
155 156
156 157
156 160
157 159
158 169
159 164
160 161
161 162
162 163
162 164
163 164
164 165
165 166
166 167
166 217
167 168
168 170
169 180
170 171
171 172
172 173
173 174
174 175
175 176
176 177
177 178
178 179
179 181
180 191
181 217
182 183
183 184
184 185
185 186
186 187
187 188
187 197
188 189
189 197
190 192
191 202
192 193
193 194
194 195
195 196
196 197
197 198
198 199
199 200
200 201
201 203
202 213
203 204
203 212
204 205
205 215
206 207
207 208
208 209
209 210
210 211
211 212
212 214
213 225
214 215
215 216
216 217
217 218
218 219
219 220
220 221
221 222
222 223
223 226
224 298
225 236
226 227
227 228
228 229
229 230
230 231
231 232
232 271
233 234
234 235
235 237
236 247
237 238
238 239
239 240
240 241
241 242
242 243
243 244
244 245
245 246
246 248
247 258
248 249
249 217
250 251
251 252
252 253
253 254
253 261
254 255
255 256
256 257
257 259
258 269
259 260
260 261
261 262
262 263
263 264
264 265
265 266
266 267
266 271
267 268
267 271
268 270
269 280
270 271
271 272
272 273
273 80
274 275
275 276
276 277
277 278
278 279
279 281
280 291
281 282
281 284
282 283
283 284
284 285
285 286
285 290
286 287
287 288
288 289
289 290
290 292
291 295
292 293
293 294
295 296
296 297
297 299
298 309
299 300
300 301
301 302
302 303
303 304
304 305
304 327
305 306
306 307
306 327
307 308
308 310
309 320
310 311
311 312
312 313
312 315
313 314
314 323
315 316
316 317
316 321
317 318
317 321
318 319
319 295
320 331
321 322
322 323
323 324
324 325
325 326
326 301
327 328
328 329
329 330
330 332
331 342
332 333
332 26
333 334
334 335
334 32
335 336
336 337
336 182
337 338
338 339
338 37
339 340
340 341
340 40
341 343
342 353
343 344
343 32
344 345
345 346
345 29
346 347
347 348
347 59
348 349
349 350
349 233
350 351
351 352
351 233
352 354
353 3
354 355
354 104
355 356
356 357
356 92
357 358
358 359
358 190
359 360
360 361
360 68
361 362
362 363
362 233
363 4
